56
120
83	2
81	2
79	1
78	3
77	2
75	1
74	2
72	1
71	3
70	1
69	2
68	4
67	1
66	1
65	1
63	2
62	2
61	1
59	1
57	3
56	1
55	4
54	2
52	3
51	1
50	2
49	2
48	1
47	1
46	4
45	1
43	1
42	1
41	2
40	1
36	4
35	2
34	2
33	1
32	3
31	1
29	1
28	1
27	2
26	2
25	2
23	1
22	2
21	1
20	1
18	1
17	2
16	3
14	1
13	2
12	2
